104-10534 104
104-10535 104
104-10536 104
104-10537 104
104-10538 104
104-10539 104
104-10540 104
104-10541 104
104-10542 104
104-10543 104
104-10544 104
104-10545 104
104-10546 104
104-10547 104
104-10548 104
104-10549 104
104-10550 104
104-10551 104
104-10552 104
104-10553 104
104-10554 104
104-10555 104
104-10556 104
104-10557 104
104-10558 104
104-10559 104
104-10560 104
104-10561 104
104-10562 104
104-10563 104
104-10564 104
104-10565 104
104-10566 104
104-10567 104
104-10568 104
104-10569 104
104-10570 104
104-10571 104
104-10572 104
104-10573 104
104-10574 104
104-10575 104
104-10576 104
104-10577 104
104-10578 104
104-10579 104
104-10580 104
104-10581 104
104-10582 104
104-10583 104
11-1606 11
11-1607 11
11-1608 11
11-1609 11
11-1610 11
11-1611 11
11-1612 11
11-1613 11
11-1614 11
11-1615 11
11-1616 11
11-1617 11
11-1618 11
11-1619 11
11-1620 11
11-1621 11
11-1622 11
11-1623 11
11-1624 11
11-1625 11
11-1626 11
11-1627 11
11-1628 11
11-1629 11
11-1630 11
11-1631 11
11-1632 11
11-1633 11
11-1634 11
11-1635 11
11-1636 11
11-1637 11
11-1638 11
11-1639 11
11-1640 11
11-1641 11
11-1642 11
11-1643 11
11-1644 11
11-1645 11
11-1646 11
11-1647 11
11-1648 11
11-1649 11
11-1650 11
11-1651 11
11-1652 11
11-1653 11
11-1654 11
11-1655 11
11-1656 11
11-1657 11
11-1658 11
11-1659 11
11-1660 11
11-1661 11
11-1662 11
11-1663 11
11-1664 11
11-1665 11
11-1666 11
11-1667 11
11-1668 11
11-1669 11
11-1670 11
11-1671 11
11-1672 11
11-1673 11
11-1674 11
11-1675 11
11-1676 11
11-1677 11
11-1678 11
11-1679 11
11-1680 11
11-1681 11
11-1682 11
11-1683 11
11-1684 11
11-1685 11
11-1686 11
11-1687 11
11-1688 11
11-1689 11
11-1690 11
11-1691 11
11-1692 11
11-1693 11
11-1694 11
11-1695 11
11-1696 11
11-1697 11
11-1698 11
11-1699 11
11-1700 11
11-1701 11
11-1702 11
11-1703 11
11-1704 11
11-1705 11
11-1706 11
11-1707 11
11-1708 11
11-1709 11
11-1710 11
11-1711 11
11-1712 11
11-1713 11
11-1714 11
11-1715 11
11-1716 11
11-1717 11
11-1718 11
11-1719 11
11-1720 11
11-1721 11
11-1722 11
11-1723 11
11-1724 11
11-1725 11
11-1726 11
11-1727 11
11-1728 11
11-1729 11
11-1730 11
11-1731 11
11-1732 11
11-1733 11
11-1734 11
11-1735 11
11-1736 11
11-1737 11
11-1738 11
11-1739 11
11-1740 11
11-1741 11
11-1742 11
11-1743 11
11-1744 11
11-1745 11
11-1746 11
11-1747 11
11-1748 11
11-1749 11
11-1750 11
11-1751 11
11-1752 11
11-1753 11
11-1754 11
11-1755 11
11-1756 11
11-1757 11
11-1758 11
11-1759 11
11-1760 11
11-1761 11
11-1762 11
11-1763 11
11-1764 11
11-1765 11
11-1766 11
11-1767 11
11-1768 11
11-1769 11
11-1770 11
11-1771 11
11-1772 11
11-1773 11
11-1774 11
11-1775 11
11-1776 11
11-1777 11
11-1778 11
11-1779 11
11-1780 11
11-1781 11
11-1782 11
11-1783 11
11-1784 11
11-1785 11
11-1786 11
11-1787 11
11-1788 11
11-1789 11
11-1790 11
11-1791 11
11-1792 11
11-1793 11
11-1794 11
11-1795 11
11-1796 11
11-1797 11
11-1798 11
11-1799 11
11-1800 11
11-1801 11
11-1802 11
11-1803 11
11-1804 11
11-1805 11
11-1806 11
11-1807 11
11-1808 11
11-1809 11
11-1810 11
11-1811 11
11-1812 11
11-1813 11
11-1814 11
11-1815 11
11-1816 11
11-1817 11
11-1818 11
11-1819 11
11-1820 11
11-1821 11
110-10975 110
113-11460 113
113-11461 113
113-11462 113
113-11463 113
113-11464 113
113-11465 113
113-11466 113
113-11467 113
113-11468 113
113-11469 113
113-11470 113
113-11471 113
113-11472 113
113-11473 113
113-11474 113
113-11475 113
113-11476 113
113-11477 113
113-11478 113
113-11479 113
113-11480 113
113-11481 113
113-11482 113
113-11483 113
113-11484 113
113-11485 113
113-11486 113
113-11487 113
113-11488 113
113-11489 113
113-11490 113
113-11491 113
113-11492 113
113-11493 113
113-11494 113
113-11495 113
113-11496 113
113-11497 113
113-11498 113
113-11499 113
113-11500 113
113-11501 113
113-11502 113
113-11503 113
113-11504 113
113-11505 113
113-11506 113
113-11507 113
113-11508 113
113-11509 113
113-11510 113
113-11511 113
113-11512 113
113-11513 113
113-11514 113
113-11515 113
113-11516 113
113-11517 113
113-11518 113
113-11519 113
113-11520 113
113-11521 113
113-11522 113
113-11523 113
113-11524 113
113-11525 113
113-11526 113
113-11527 113
113-11528 113
113-11529 113
113-11530 113
113-11531 113
113-11532 113
113-11533 113
113-11534 113
113-11535 113
113-11536 113
113-11537 113
113-11538 113
113-11539 113
113-11540 113
113-11541 113
113-11542 113
113-11543 113
113-11544 113
113-11545 113
113-11546 113
113-11547 113
113-11548 113
113-11549 113
113-11550 113
113-11551 113
113-11552 113
113-11553 113
113-11554 113
113-11555 113
113-11556 113
113-11557 113
113-11558 113
113-11559 113
113-11560 113
113-11561 113
113-11562 113
113-11563 113
113-11564 113
113-11565 113
113-11566 113
113-11567 113
113-11568 113
113-11569 113
113-11570 113
113-11571 113
113-11572 113
113-11573 113
113-11574 113
113-11575 113
113-11576 113
113-11577 113
113-11578 113
113-11579 113
113-11580 113
113-11581 113
113-11582 113
113-11583 113
113-11584 113
113-11585 113
113-11586 113
113-11587 113
113-11588 113
113-11589 113
113-11590 113
113-11591 113
113-11592 113
113-11593 113
113-11594 113
113-11595 113
113-11596 113
113-11597 113
113-11598 113
113-11599 113
113-11600 113
113-11601 113
113-11602 113
113-11603 113
113-11604 113
113-11605 113
113-11606 113
113-11607 113
113-11608 113
113-11609 113
113-11610 113
113-11611 113
113-11612 113
113-11613 113
113-11614 113
113-11615 113
113-11616 113
113-11617 113
113-11618 113
113-11619 113
113-11620 113
113-11621 113
113-11622 113
113-11623 113
113-11624 113
113-11625 113
113-11626 113
113-11627 113
113-11628 113
113-11629 113
113-11630 113
113-11631 113
113-11632 113
113-11633 113
113-11634 113
113-11635 113
113-11636 113
113-11637 113
113-11638 113
113-11639 113
113-11640 113
113-11641 113
113-11642 113
113-11643 113
113-11644 113
113-11645 113
113-11646 113
113-11647 113
113-11648 113
113-11649 113
113-11650 113
113-11651 113
113-11652 113
113-11653 113
113-11654 113
113-11655 113
113-11656 113
113-11657 113
113-11658 113
113-11659 113
113-11660 113
113-11661 113
113-11662 113
113-11663 113
113-11664 113
113-11665 113
113-11666 113
113-11667 113
113-11668 113
113-11669 113
113-11670 113
113-11671 113
113-11672 113
113-11673 113
113-11674 113
113-11675 113
113-11676 113
113-11677 113
113-11678 113
113-11679 113
113-11680 113
113-11681 113
113-11682 113
113-11683 113
113-11684 113
113-11685 113
113-11686 113
113-11687 113
113-11688 113
113-11689 113
113-11690 113
113-11691 113
113-11692 113
113-11693 113
113-11694 113
113-11695 113
113-11696 113
113-11697 113
113-11698 113
113-11699 113
113-11700 113
113-11701 113
113-11702 113
113-11703 113
113-11704 113
113-11705 113
113-11706 113
113-11707 113
113-11708 113
113-11709 113
113-11710 113
113-11711 113
113-11712 113
113-11713 113
113-11714 113
113-11715 113
113-11716 113
113-11717 113
113-11718 113
113-11719 113
113-11720 113
113-11721 113
113-11722 113
113-11724 113
114-11723 114
114-11725 114
114-11726 114
114-11727 114
114-11728 114
114-11729 114
114-11730 114
114-11731 114
114-11732 114
114-11733 114
114-11734 114
114-11735 114
114-11736 114
114-11737 114
114-11738 114
114-11739 114
114-11740 114
114-11741 114
114-11742 114
114-11743 114
114-11744 114
114-11745 114
114-11746 114
114-11747 114
114-11748 114
114-11749 114
114-11750 114
114-11751 114
114-11752 114
120-12196 120
120-12197 120
120-12198 120
120-12199 120
120-12201 120
122-12402 122
122-12404 122
122-12405 122
122-12406 122
122-12407 122
122-12408 122
122-12409 122
122-12410 122
122-12411 122
122-12412 122
122-12413 122
122-12414 122
122-12415 122
122-12416 122
122-12417 122
122-12418 122
122-12419 122
122-12420 122
122-12421 122
122-12422 122
122-12423 122
122-12424 122
122-12425 122
122-12426 122
122-12427 122
122-12428 122
122-12429 122
122-12430 122
122-12431 122
122-12432 122
122-12433 122
122-12434 122
122-12435 122
122-12436 122
122-12437 122
122-12438 122
122-12439 122
122-12440 122
122-12441 122
122-12442 122
122-12443 122
122-12444 122
122-12445 122
122-12446 122
122-12447 122
122-12448 122
122-12449 122
122-12450 122
122-12451 122
122-12452 122
122-12453 122
122-12454 122
122-12455 122
122-12456 122
122-12457 122
122-12458 122
122-12459 122
122-12460 122
122-12461 122
122-12462 122
122-12463 122
122-12464 122
122-12465 122
122-12466 122
122-12467 122
122-12468 122
122-12469 122
122-12470 122
122-12471 122
122-12472 122
122-12473 122
122-12474 122
122-12475 122
122-12476 122
122-12477 122
122-12478 122
122-12479 122
122-12480 122
122-12481 122
122-12482 122
122-12483 122
122-12484 122
122-12485 122
122-12486 122
122-12487 122
122-12488 122
122-12489 122
122-12490 122
122-12491 122
122-12492 122
122-12493 122
122-12494 122
122-12495 122
122-12496 122
122-12497 122
122-12498 122
122-12499 122
122-12500 122
122-12501 122
122-12502 122
122-12503 122
122-12504 122
122-12505 122
122-12506 122
122-12507 122
122-12508 122
122-12509 122
122-12510 122
122-12511 122
122-12512 122
122-12513 122
122-12514 122
122-12515 122
122-12516 122
122-12517 122
122-12518 122
122-12519 122
122-12520 122
122-12521 122
122-12522 122
122-12523 122
122-12524 122
122-12525 122
122-12526 122
122-12527 122
122-12528 122
122-12529 122
122-12530 122
122-12531 122
122-12532 122
122-12533 122
122-12534 122
122-12535 122
122-12536 122
122-12537 122
122-12538 122
122-12539 122
122-12540 122
122-12541 122
122-12542 122
122-12543 122
122-12544 122
122-12545 122
122-12546 122
122-12547 122
122-12548 122
122-12549 122
122-12550 122
122-12551 122
122-12552 122
122-12553 122
122-12554 122
122-12555 122
122-12556 122
122-12557 122
122-12558 122
122-12559 122
122-12560 122
122-12561 122
122-12562 122
122-12563 122
122-12564 122
122-12565 122
122-12566 122
122-12567 122
122-12568 122
122-12569 122
122-12570 122
122-12571 122
122-12572 122
122-12573 122
122-12574 122
122-12575 122
122-12576 122
122-12577 122
122-12578 122
122-12579 122
122-12580 122
122-12581 122
122-12582 122
122-12583 122
122-12584 122
122-12585 122
122-12586 122
122-12587 122
122-12588 122
122-12589 122
122-12590 122
122-12591 122
122-12592 122
122-12593 122
122-12594 122
122-12595 122
122-12596 122
122-12597 122
122-12598 122
122-12599 122
122-12600 122
122-12601 122
122-12602 122
122-12603 122
122-12604 122
122-12605 122
122-12606 122
122-12607 122
122-12608 122
122-12609 122
122-12610 122
122-12611 122
122-12612 122
122-12613 122
122-12614 122
122-12615 122
122-12616 122
122-12617 122
122-12618 122
122-12619 122
122-12620 122
122-12621 122
122-12622 122
122-12623 122
122-12624 122
122-12625 122
122-12626 122
122-12627 122
122-12628 122
122-12629 122
122-12630 122
122-12631 122
122-12632 122
122-12633 122
122-12634 122
122-12635 122
122-12636 122
122-12637 122
122-12638 122
122-12639 122
122-12640 122
122-12641 122
122-12642 122
122-12643 122
122-12644 122
122-12645 122
122-12646 122
122-12647 122
122-12648 122
122-12649 122
122-12650 122
124-12665 124
124-12667 124
124-12668 124
124-12669 124
124-12670 124
124-12671 124
124-12672 124
124-12673 124
124-12674 124
124-12675 124
124-12676 124
124-12677 124
124-12678 124
124-12679 124
124-12680 124
124-12681 124
124-12682 124
124-12683 124
124-12684 124
124-12685 124
124-12686 124
124-12687 124
124-12688 124
124-12689 124
124-12690 124
124-12691 124
124-12692 124
124-12693 124
124-12694 124
16-2104 16
16-2105 16
16-2106 16
16-2107 16
16-2108 16
16-2109 16
16-2110 16
16-2111 16
16-2112 16
16-2113 16
16-2114 16
16-2115 16
16-2116 16
16-2117 16
16-2118 16
16-2119 16
16-2120 16
16-2121 16
16-2122 16
16-2123 16
16-2124 16
16-2125 16
16-2126 16
16-2127 16
16-2128 16
16-2129 16
16-2130 16
16-2131 16
16-2132 16
16-2133 16
16-2134 16
16-2135 16
16-2136 16
16-2137 16
16-2138 16
16-2139 16
16-2140 16
16-2141 16
16-2142 16
16-2143 16
16-2144 16
16-2145 16
16-2146 16
16-2147 16
16-2148 16
16-2149 16
16-2150 16
16-2151 16
16-2152 16
16-2153 16
16-2154 16
16-2155 16
16-2156 16
16-2157 16
16-2158 16
16-2159 16
16-2160 16
16-2161 16
16-2162 16
16-2163 16
16-2164 16
16-2165 16
16-2166 16
16-2167 16
16-2168 16
16-2169 16
16-2170 16
16-2171 16
16-2172 16
16-2173 16
16-2174 16
16-2175 16
16-2176 16
16-2177 16
16-2178 16
16-2179 16
16-2180 16
16-2181 16
16-2182 16
16-2183 16
16-2184 16
16-2185 16
16-2186 16
16-2187 16
16-2188 16
16-2189 16
16-2190 16
16-2191 16
16-2192 16
16-2193 16
16-2194 16
16-2195 16
16-2196 16
16-2197 16
16-2198 16
16-2199 16
16-2200 16
16-2201 16
16-2202 16
16-2203 16
16-2204 16
16-2205 16
16-2206 16
16-2207 16
16-2208 16
16-2209 16
16-2210 16
16-2211 16
16-2212 16
16-2213 16
16-2214 16
16-2215 16
16-2216 16
16-2217 16
16-2218 16
16-2219 16
16-2220 16
16-2221 16
16-2222 16
16-2223 16
16-2224 16
16-2225 16
16-2226 16
16-2227 16
16-2228 16
16-2229 16
16-2230 16
16-2231 16
16-2232 16
16-2233 16
16-2234 16
16-2235 16
16-2236 16
16-2237 16
16-2238 16
16-2239 16
16-2240 16
16-2241 16
16-2242 16
16-2243 16
16-2244 16
16-2245 16
16-2246 16
16-2247 16
16-2248 16
16-2249 16
16-2250 16
16-2251 16
16-2252 16
16-2253 16
16-2254 16
16-2255 16
16-2256 16
16-2257 16
16-2258 16
16-2259 16
16-2260 16
16-2261 16
16-2262 16
16-2263 16
16-2264 16
16-2265 16
16-2266 16
16-2267 16
16-2268 16
16-2269 16
16-2270 16
16-2271 16
16-2272 16
16-2273 16
16-2274 16
16-2275 16
16-2276 16
16-2277 16
16-2278 16
16-2279 16
16-2280 16
16-2281 16
16-2282 16
16-2283 16
16-2284 16
16-2285 16
16-2286 16
16-2287 16
16-2288 16
16-2289 16
16-2290 16
16-2291 16
16-2292 16
16-2293 16
16-2294 16
16-2295 16
16-2296 16
16-2297 16
16-2298 16
16-2299 16
16-2300 16
16-2301 16
16-2302 16
16-2303 16
16-2304 16
16-2305 16
16-2306 16
16-2307 16
16-2308 16
16-2309 16
16-2310 16
16-2311 16
16-2312 16
16-2313 16
16-2314 16
16-2315 16
16-2316 16
16-2317 16
16-2318 16
16-2319 16
16-2320 16
16-2321 16
16-2322 16
16-2323 16
16-2324 16
16-2325 16
16-2326 16
16-2327 16
16-2328 16
16-2329 16
16-2330 16
16-2331 16
16-2332 16
16-2333 16
16-2334 16
16-2335 16
16-2336 16
16-2337 16
16-2338 16
16-2339 16
16-2340 16
16-2341 16
16-2342 16
16-2343 16
16-2344 16
16-2345 16
16-2346 16
16-2347 16
16-2348 16
16-2349 16
16-2350 16
16-2351 16
16-2352 16
16-2353 16
16-2354 16
16-2355 16
16-2356 16
16-2357 16
16-2358 16
16-2359 16
16-2360 16
16-2361 16
16-2362 16
16-2363 16
16-2364 16
16-2365 16
16-2366 16
16-2367 16
16-2368 16
16-2369 16
16-2370 16
24-3122 24
24-3123 24
24-3124 24
24-3125 24
24-3126 24
24-3127 24
24-3128 24
24-3129 24
24-3130 24
24-3131 24
24-3132 24
24-3133 24
24-3134 24
24-3135 24
24-3136 24
24-3137 24
25-3138 25
25-3139 25
25-3140 25
25-3141 25
25-3142 25
25-3143 25
25-3144 25
25-3145 25
25-3146 25
25-3147 25
25-3148 25
25-3149 25
25-3150 25
25-3151 25
25-3152 25
25-3153 25
25-3154 25
25-3155 25
25-3156 25
25-3157 25
25-3158 25
25-3159 25
25-3160 25
25-3161 25
25-3162 25
25-3163 25
25-3164 25
25-3165 25
25-3166 25
25-3167 25
25-3168 25
25-3169 25
25-3170 25
25-3171 25
25-3172 25
25-3173 25
25-3174 25
25-3175 25
25-3176 25
25-3177 25
25-3178 25
25-3179 25
25-3180 25
25-3181 25
25-3182 25
25-3183 25
25-3184 25
25-3185 25
25-3186 25
25-3187 25
25-3188 25
25-3189 25
25-3190 25
25-3191 25
25-3192 25
25-3193 25
25-3194 25
25-3195 25
25-3196 25
25-3197 25
25-3198 25
25-3199 25
25-3200 25
25-3201 25
25-3202 25
25-3203 25
25-3204 25
25-3205 25
25-3206 25
25-3207 25
25-3208 25
25-3209 25
25-3210 25
25-3211 25
25-3212 25
25-3213 25
25-3214 25
25-3215 25
25-3216 25
25-3217 25
25-3218 25
25-3219 25
25-3220 25
25-3221 25
25-3222 25
25-3223 25
25-3224 25
25-3225 25
25-3226 25
25-3227 25
25-3228 25
25-3229 25
25-3230 25
25-3231 25
25-3232 25
25-3233 25
25-3234 25
25-3235 25
25-3236 25
25-3237 25
25-3238 25
25-3239 25
25-3240 25
25-3241 25
25-3242 25
25-3243 25
25-3244 25
25-3245 25
25-3246 25
25-3247 25
25-3248 25
25-3249 25
25-3250 25
25-3251 25
25-3252 25
25-3253 25
25-3254 25
25-3255 25
25-3256 25
25-3257 25
25-3258 25
25-3259 25
25-3260 25
25-3261 25
25-3262 25
25-3263 25
25-3264 25
25-3265 25
25-3266 25
25-3267 25
25-3268 25
25-3269 25
25-3270 25
25-3271 25
25-3272 25
25-3273 25
25-3274 25
25-3275 25
25-3276 25
25-3277 25
25-3278 25
25-3279 25
25-3280 25
25-3281 25
25-3282 25
25-3283 25
25-3284 25
25-3285 25
25-3286 25
28-3387 28
28-3388 28
28-3389 28
28-3390 28
28-3391 28
28-3392 28
28-3393 28
28-3394 28
28-3395 28
28-3396 28
28-3397 28
28-3398 28
28-3399 28
28-3400 28
28-3401 28
28-3402 28
28-3403 28
28-3404 28
28-3405 28
28-3406 28
28-3407 28
28-3408 28
28-3409 28
28-3410 28
28-3411 28
28-3412 28
28-3413 28
28-3414 28
28-3415 28
28-3416 28
28-3417 28
28-3418 28
28-3419 28
28-3420 28
28-3421 28
28-3422 28
28-3423 28
28-3424 28
28-3425 28
28-3426 28
28-3427 28
28-3428 28
28-3429 28
28-3430 28
28-3431 28
28-3432 28
28-3433 28
28-3434 28
28-3435 28
28-3436 28
28-3437 28
28-3438 28
28-3439 28
28-3440 28
28-3441 28
28-3442 28
28-3443 28
28-3444 28
28-3445 28
28-3446 28
28-3447 28
28-3448 28
28-3449 28
28-3450 28
28-3451 28
28-3452 28
28-3453 28
28-3454 28
28-3455 28
28-3456 28
28-3457 28
28-3458 28
28-3459 28
28-3460 28
28-3461 28
28-3462 28
28-3463 28
28-3464 28
28-3465 28
28-3466 28
28-3467 28
31-3565 31
31-3566 31
31-3567 31
31-3568 31
31-3569 31
31-3570 31
31-3571 31
31-3572 31
31-3573 31
31-3574 31
31-3575 31
31-3576 31
31-3577 31
31-3578 31
31-3579 31
31-3580 31
31-3581 31
31-3582 31
34-3682 34
34-3684 34
34-3685 34
34-3686 34
34-3687 34
34-3688 34
34-3689 34
34-3690 34
34-3691 34
34-3692 34
34-3693 34
34-3694 34
34-3695 34
34-3696 34
34-3697 34
34-3698 34
34-3699 34
34-3700 34
34-3701 34
34-3702 34
34-3703 34
34-3704 34
34-3705 34
34-3706 34
34-3707 34
34-3708 34
34-3709 34
34-3710 34
34-3711 34
34-3712 34
34-3713 34
34-3714 34
34-3715 34
34-3716 34
34-3717 34
34-3718 34
34-3719 34
34-3720 34
34-3721 34
34-3722 34
34-3723 34
34-3724 34
34-3725 34
34-3726 34
34-3727 34
34-3728 34
34-3729 34
34-3730 34
34-3731 34
34-3732 34
34-3733 34
34-3734 34
34-3735 34
34-3736 34
34-3737 34
34-3738 34
34-3739 34
34-3740 34
34-3741 34
34-3742 34
34-3743 34
34-3744 34
34-3745 34
34-3746 34
34-3747 34
34-3748 34
34-3749 34
34-3750 34
34-3751 34
34-3752 34
34-3753 34
34-3754 34
34-3755 34
34-3756 34
34-3757 34
34-3758 34
34-3759 34
34-3760 34
34-3761 34
34-3762 34
34-3763 34
34-3764 34
34-3765 34
34-3766 34
34-3767 34
34-3768 34
34-3769 34
34-3770 34
34-3771 34
34-3772 34
34-3773 34
34-3774 34
34-3775 34
34-3776 34
34-3777 34
34-3778 34
34-3779 34
34-3780 34
34-3781 34
34-3782 34
34-3783 34
34-3784 34
34-3785 34
34-3786 34
34-3787 34
34-3788 34
34-3789 34
34-3790 34
34-3791 34
34-3792 34
34-3793 34
34-3794 34
34-3795 34
34-3796 34
34-3797 34
34-3798 34
34-3799 34
34-3800 34
34-3801 34
34-3802 34
34-3803 34
34-3804 34
34-3805 34
34-3806 34
34-3807 34
34-3808 34
34-3809 34
34-3810 34
34-3811 34
34-3812 34
34-3813 34
34-3814 34
34-3815 34
34-3816 34
34-3817 34
34-3818 34
34-3819 34
34-3820 34
34-3821 34
34-3822 34
34-3823 34
34-3824 34
34-3825 34
34-3826 34
34-3827 34
34-3828 34
34-3829 34
34-3830 34
34-3831 34
34-3832 34
34-3833 34
34-3834 34
34-3835 34
34-3836 34
34-3837 34
34-3838 34
34-3839 34
34-3840 34
34-3841 34
34-3842 34
34-3843 34
34-3844 34
34-3845 34
34-3846 34
34-3847 34
34-3848 34
34-3849 34
34-3850 34
34-3851 34
34-3852 34
34-3853 34
34-3854 34
34-3855 34
34-3856 34
34-3857 34
34-3858 34
34-3859 34
34-3860 34
34-3861 34
34-3862 34
34-3863 34
34-3864 34
34-3865 34
34-3866 34
34-3867 34
34-3868 34
34-3869 34
34-3870 34
34-3871 34
34-3872 34
34-3873 34
34-3874 34
34-3875 34
34-3876 34
34-3877 34
34-3878 34
34-3879 34
34-3880 34
34-3881 34
34-3882 34
34-3883 34
34-3884 34
34-3885 34
34-3886 34
34-3887 34
34-3888 34
34-3889 34
34-3890 34
34-3891 34
34-3892 34
34-3893 34
34-3894 34
34-3895 34
34-3896 34
34-3897 34
34-3898 34
34-3899 34
34-3900 34
34-3901 34
34-3902 34
34-3903 34
34-3904 34
34-3905 34
34-3906 34
34-3907 34
34-3908 34
34-3909 34
34-3910 34
34-3911 34
34-3912 34
34-3913 34
34-3914 34
34-3915 34
34-3916 34
34-3917 34
34-3918 34
34-3919 34
34-3920 34
34-3921 34
34-3922 34
34-3923 34
34-3924 34
34-3925 34
34-3926 34
34-3927 34
34-3928 34
34-3929 34
34-3930 34
34-3931 34
34-3932 34
34-3933 34
34-3934 34
34-3935 34
34-3936 34
34-3937 34
34-3938 34
34-3939 34
34-3940 34
34-3941 34
34-3942 34
34-3943 34
34-3944 34
34-3945 34
34-3946 34
34-3947 34
34-3948 34
34-3949 34
34-3950 34
34-3951 34
34-3952 34
36-3954 36
36-3955 36
36-3956 36
36-3957 36
36-3958 36
36-3959 36
36-3960 36
36-3961 36
36-3962 36
36-3963 36
36-3964 36
36-3965 36
42-4587 42
42-4588 42
42-4589 42
42-4590 42
42-4591 42
42-4592 42
42-4593 42
42-4594 42
42-4595 42
42-4596 42
42-4597 42
42-4598 42
42-4599 42
42-4600 42
42-4601 42
42-4602 42
42-4603 42
42-4604 42
42-4605 42
42-4606 42
42-4607 42
42-4608 42
42-4609 42
42-4610 42
42-4611 42
42-4612 42
42-4613 42
42-4614 42
42-4615 42
42-4616 42
42-4617 42
42-4618 42
42-4619 42
42-4620 42
42-4621 42
42-4622 42
42-4623 42
42-4624 42
42-4625 42
42-4626 42
42-4627 42
42-4628 42
42-4629 42
42-4630 42
42-4631 42
42-4632 42
42-4633 42
42-4634 42
42-4635 42
42-4636 42
42-4637 42
42-4638 42
42-4639 42
42-4640 42
42-4641 42
42-4642 42
42-4643 42
42-4644 42
42-4645 42
42-4646 42
42-4647 42
42-4648 42
42-4649 42
42-4650 42
42-4651 42
42-4652 42
42-4653 42
42-4654 42
42-4655 42
42-4656 42
42-4657 42
42-4658 42
42-4659 42
42-4660 42
42-4661 42
42-4662 42
42-4663 42
42-4664 42
42-4665 42
42-4666 42
42-4667 42
42-4668 42
42-4669 42
42-4670 42
42-4671 42
42-4672 42
42-4673 42
42-4674 42
42-4675 42
42-4676 42
42-4677 42
42-4678 42
42-4679 42
42-4680 42
42-4681 42
42-4682 42
42-4683 42
42-4684 42
42-4685 42
42-4686 42
42-4687 42
42-4688 42
42-4689 42
42-4690 42
42-4691 42
42-4692 42
42-4693 42
42-4694 42
42-4695 42
42-4696 42
42-4697 42
42-4698 42
42-4699 42
42-4700 42
42-4701 42
42-4702 42
42-4703 42
42-4704 42
42-4705 42
42-4706 42
42-4707 42
42-4708 42
42-4709 42
42-4710 42
42-4711 42
42-4712 42
42-4713 42
42-4714 42
42-4715 42
42-4716 42
42-4717 42
42-4718 42
42-4719 42
42-4720 42
42-4721 42
42-4722 42
42-4723 42
42-4724 42
42-4725 42
42-4726 42
42-4727 42
42-4728 42
42-4729 42
42-4730 42
42-4731 42
42-4732 42
42-4733 42
42-4734 42
42-4735 42
42-4736 42
42-4737 42
42-4738 42
42-4739 42
42-4740 42
42-4741 42
42-4742 42
42-4743 42
42-4744 42
42-4745 42
42-4746 42
42-4747 42
42-4748 42
42-4749 42
42-4750 42
42-4751 42
42-4752 42
42-4753 42
42-4754 42
42-4755 42
42-4756 42
42-4757 42
42-4758 42
42-4759 42
42-4760 42
42-4761 42
42-4762 42
42-4763 42
42-4764 42
42-4765 42
42-4766 42
42-4767 42
42-4768 42
42-4769 42
42-4770 42
42-4771 42
42-4772 42
42-4773 42
42-4774 42
42-4775 42
42-4776 42
42-4777 42
42-4778 42
42-4779 42
42-4780 42
42-4781 42
42-4782 42
42-4783 42
42-4784 42
42-4785 42
42-4786 42
42-4787 42
42-4788 42
42-4789 42
42-4790 42
42-4791 42
42-4792 42
42-4793 42
42-4794 42
42-4795 42
42-4796 42
42-4797 42
42-4798 42
42-4799 42
42-4800 42
42-4801 42
42-4802 42
42-4803 42
42-4804 42
42-4805 42
42-4806 42
42-4807 42
42-4808 42
42-4809 42
42-4810 42
42-4811 42
42-4812 42
42-4813 42
42-4814 42
42-4815 42
42-4816 42
42-4817 42
42-4818 42
42-4819 42
42-4820 42
42-4821 42
42-4822 42
42-4823 42
42-4824 42
42-4825 42
42-4826 42
42-4827 42
42-4828 42
42-4829 42
42-4830 42
42-4831 42
42-4832 42
42-4833 42
42-4834 42
42-4835 42
42-4836 42
42-4837 42
42-4838 42
42-4839 42
42-4840 42
42-4841 42
42-4842 42
42-4843 42
42-4844 42
42-4845 42
42-4846 42
42-4847 42
42-4848 42
46-5168 46
46-5169 46
46-5170 46
46-5171 46
46-5172 46
46-5173 46
46-5174 46
46-5175 46
46-5176 46
46-5177 46
46-5178 46
46-5179 46
46-5180 46
46-5181 46
46-5182 46
46-5183 46
46-5184 46
46-5185 46
46-5186 46
46-5187 46
46-5188 46
46-5189 46
46-5190 46
46-5191 46
46-5192 46
46-5193 46
46-5194 46
46-5195 46
46-5196 46
46-5197 46
46-5198 46
46-5199 46
46-5200 46
46-5201 46
46-5202 46
46-5203 46
46-5204 46
46-5205 46
46-5206 46
46-5207 46
46-5208 46
46-5209 46
46-5210 46
46-5211 46
46-5212 46
46-5213 46
46-5214 46
46-5215 46
46-5216 46
46-5217 46
46-5218 46
46-5219 46
46-5220 46
46-5221 46
46-5222 46
46-5223 46
46-5224 46
46-5225 46
46-5226 46
46-5227 46
46-5228 46
46-5229 46
46-5230 46
46-5231 46
46-5232 46
46-5233 46
46-5234 46
46-5235 46
46-5236 46
46-5237 46
46-5238 46
46-5239 46
46-5240 46
46-5241 46
46-5242 46
46-5243 46
46-5244 46
46-5245 46
46-5246 46
46-5247 46
46-5248 46
46-5249 46
46-5250 46
46-5251 46
46-5252 46
46-5253 46
46-5254 46
46-5255 46
46-5256 46
47-5257 47
47-5258 47
47-5259 47
47-5260 47
47-5261 47
47-5262 47
47-5263 47
47-5264 47
47-5265 47
47-5266 47
47-5267 47
47-5268 47
47-5269 47
47-5270 47
47-5271 47
47-5272 47
47-5273 47
47-5274 47
47-5275 47
47-5276 47
47-5277 47
47-5278 47
47-5279 47
47-5280 47
47-5281 47
47-5282 47
47-5283 47
47-5284 47
47-5285 47
47-5286 47
47-5287 47
47-5288 47
47-5289 47
47-5290 47
47-5291 47
47-5292 47
47-5293 47
47-5294 47
47-5295 47
47-5296 47
47-5297 47
47-5298 47
47-5299 47
47-5300 47
47-5301 47
47-5302 47
47-5303 47
47-5304 47
47-5305 47
47-5306 47
47-5307 47
47-5308 47
47-5309 47
47-5310 47
47-5311 47
47-5312 47
47-5313 47
47-5314 47
47-5315 47
47-5316 47
47-5317 47
47-5318 47
47-5319 47
47-5320 47
47-5321 47
47-5322 47
47-5323 47
47-5324 47
47-5325 47
47-5326 47
47-5327 47
47-5328 47
47-5329 47
47-5330 47
47-5331 47
47-5332 47
47-5333 47
47-5334 47
47-5335 47
47-5336 47
47-5337 47
47-5338 47
47-5339 47
47-5340 47
47-5341 47
47-5342 47
47-5343 47
47-5344 47
47-5345 47
47-5346 47
47-5347 47
47-5348 47
47-5349 47
47-5350 47
47-5351 47
47-5352 47
47-5353 47
47-5354 47
47-5355 47
47-5356 47
47-5357 47
47-5358 47
47-5359 47
47-5360 47
47-5361 47
47-5362 47
47-5363 47
47-5364 47
47-5365 47
47-5366 47
47-5367 47
47-5368 47
47-5369 47
47-5370 47
47-5371 47
47-5372 47
47-5373 47
47-5374 47
47-5375 47
5-572 5
5-577 5
5-581 5
5-584 5
5-585 5
5-586 5
5-587 5
5-589 5
5-590 5
5-591 5
5-592 5
5-593 5
5-594 5
5-595 5
5-596 5
5-597 5
5-598 5
5-599 5
5-600 5
5-601 5
5-602 5
5-605 5
5-606 5
5-607 5
5-608 5
5-609 5
5-610 5
5-611 5
5-612 5
5-613 5
5-614 5
5-615 5
5-616 5
5-617 5
5-618 5
5-619 5
5-620 5
5-621 5
5-622 5
5-623 5
5-624 5
5-625 5
5-626 5
5-627 5
5-628 5
5-629 5
5-630 5
5-631 5
5-632 5
5-633 5
5-634 5
5-635 5
5-636 5
5-637 5
5-638 5
5-639 5
5-640 5
5-641 5
5-642 5
5-643 5
5-644 5
5-645 5
5-646 5
5-647 5
5-648 5
5-649 5
5-650 5
5-651 5
5-652 5
5-653 5
5-654 5
5-655 5
5-656 5
5-657 5
5-658 5
5-659 5
5-660 5
5-661 5
5-662 5
5-663 5
5-664 5
5-665 5
5-666 5
5-667 5
5-668 5
5-669 5
5-670 5
5-671 5
5-672 5
5-673 5
5-674 5
5-675 5
5-676 5
5-677 5
5-678 5
5-679 5
5-680 5
5-681 5
5-682 5
5-683 5
5-684 5
5-685 5
5-686 5
5-687 5
5-688 5
5-689 5
5-690 5
5-691 5
5-692 5
5-693 5
5-694 5
5-695 5
5-696 5
5-697 5
5-698 5
5-699 5
5-700 5
5-701 5
5-702 5
5-703 5
5-704 5
5-705 5
5-706 5
5-707 5
5-708 5
5-709 5
5-710 5
5-711 5
5-712 5
5-713 5
5-714 5
5-715 5
5-716 5
5-717 5
5-718 5
5-719 5
5-720 5
5-721 5
5-723 5
5-724 5
5-725 5
5-728 5
5-729 5
5-730 5
5-731 5
5-732 5
5-733 5
5-757 5
5-771 5
5-773 5
54-5862 54
54-5863 54
54-5864 54
54-5865 54
54-5867 54
54-5868 54
54-5869 54
54-5870 54
54-5871 54
54-5872 54
55-5873 55
67-6944 67
67-6945 67
67-6946 67
67-6947 67
67-6948 67
67-6949 67
67-6950 67
67-6951 67
67-6952 67
67-6953 67
67-6954 67
67-6955 67
67-6956 67
67-6957 67
67-6958 67
67-6959 67
67-6960 67
67-6961 67
67-6962 67
67-6963 67
67-6964 67
67-6965 67
67-6966 67
67-6967 67
67-6968 67
67-6969 67
67-6970 67
67-6971 67
67-6972 67
67-6973 67
67-6974 67
67-6975 67
67-6976 67
67-6977 67
67-6978 67
67-6979 67
67-6980 67
67-6981 67
67-6982 67
67-6983 67
67-6984 67
67-6985 67
67-6986 67
67-6987 67
67-6988 67
67-6989 67
67-6990 67
67-6991 67
67-6992 67
67-6993 67
67-6994 67
67-6995 67
67-6996 67
67-6997 67
67-6998 67
67-6999 67
67-7000 67
67-7001 67
67-7002 67
67-7003 67
67-7004 67
67-7005 67
67-7006 67
67-7007 67
67-7008 67
67-7009 67
67-7010 67
67-7011 67
67-7012 67
67-7013 67
67-7014 67
67-7015 67
67-7016 67
67-7017 67
67-7018 67
67-7019 67
67-7020 67
67-7021 67
67-7022 67
67-7023 67
67-7024 67
67-7025 67
67-7026 67
67-7027 67
67-7028 67
67-7029 67
67-7030 67
67-7031 67
67-7032 67
67-7033 67
67-7034 67
67-7035 67
67-7036 67
67-7037 67
67-7038 67
67-7039 67
67-7040 67
67-7041 67
69-7052 69
69-7053 69
69-7054 69
69-7055 69
69-7056 69
69-7057 69
69-7058 69
69-7059 69
69-7060 69
69-7061 69
69-7062 69
69-7063 69
69-7064 69
69-7065 69
69-7066 69
69-7067 69
69-7068 69
69-7069 69
69-7070 69
69-7071 69
69-7072 69
69-7073 69
69-7074 69
69-7075 69
69-7076 69
69-7077 69
69-7078 69
69-7079 69
69-7080 69
69-7081 69
69-7082 69
69-7083 69
69-7084 69
69-7085 69
69-7086 69
69-7087 69
69-7088 69
69-7089 69
69-7090 69
69-7091 69
69-7092 69
69-7093 69
69-7094 69
69-7095 69
7-1002 7
7-1003 7
7-1004 7
7-1005 7
7-1006 7
7-1007 7
7-1008 7
7-1009 7
7-1010 7
7-1011 7
7-1012 7
7-1013 7
7-1014 7
7-1015 7
7-1016 7
7-1017 7
7-1023 7
7-1024 7
7-1025 7
7-1026 7
7-1027 7
7-1028 7
7-1029 7
7-1030 7
7-1031 7
7-1032 7
7-1033 7
7-1034 7
7-1035 7
7-1036 7
7-1037 7
7-1038 7
7-1039 7
7-1040 7
7-1041 7
7-1042 7
7-1043 7
7-1044 7
7-1045 7
7-1046 7
7-1047 7
7-1048 7
7-1049 7
7-1050 7
7-1051 7
7-1052 7
7-1053 7
7-1054 7
7-1055 7
7-1056 7
7-1057 7
7-1058 7
7-1059 7
7-1060 7
7-1061 7
7-1062 7
7-1063 7
7-1064 7
7-1065 7
7-1066 7
7-1067 7
7-1068 7
7-1069 7
7-1070 7
7-1071 7
7-1072 7
7-1073 7
7-1074 7
7-1075 7
7-1076 7
7-1077 7
7-1078 7
7-1079 7
7-1080 7
7-1081 7
7-1082 7
7-1083 7
7-1084 7
7-1085 7
7-1086 7
7-1087 7
7-1088 7
7-1089 7
7-1090 7
7-1091 7
7-1092 7
7-1093 7
7-1094 7
7-1095 7
7-1096 7
7-1097 7
7-1098 7
7-1099 7
7-1100 7
7-1101 7
7-1102 7
7-1103 7
7-1104 7
7-1105 7
7-1106 7
7-1107 7
7-1108 7
7-1109 7
7-1110 7
7-1111 7
7-1112 7
7-1113 7
7-1114 7
7-1115 7
7-1116 7
7-1117 7
7-1118 7
7-1119 7
7-1120 7
7-1121 7
7-1122 7
7-1123 7
7-1124 7
7-1125 7
7-1126 7
7-1127 7
7-1128 7
7-1129 7
7-1130 7
7-1131 7
7-1132 7
7-1133 7
7-1134 7
7-1135 7
7-1136 7
7-1137 7
7-1138 7
7-1139 7
7-1140 7
7-1141 7
7-1142 7
7-1143 7
7-1144 7
7-1145 7
7-1146 7
7-1147 7
7-1148 7
7-1149 7
7-1150 7
7-1151 7
7-1152 7
7-1153 7
7-1154 7
7-1155 7
7-1156 7
7-1157 7
7-1158 7
7-1159 7
7-1160 7
7-1161 7
7-1162 7
7-1163 7
7-1164 7
7-1165 7
7-1166 7
7-1167 7
7-1168 7
7-1169 7
7-1170 7
7-1171 7
7-1172 7
7-1173 7
7-1174 7
7-1175 7
7-1176 7
7-1177 7
7-1178 7
7-1179 7
7-1180 7
7-1181 7
7-1182 7
7-1183 7
7-1184 7
7-1185 7
7-1186 7
7-1187 7
7-1188 7
7-1189 7
7-1190 7
7-1191 7
7-1192 7
7-1193 7
7-1194 7
7-1195 7
7-1196 7
7-1197 7
7-1198 7
7-1199 7
7-1200 7
7-1201 7
7-1202 7
7-1203 7
7-1204 7
7-1205 7
7-1206 7
7-1207 7
7-1208 7
7-1209 7
7-1210 7
7-1211 7
7-1212 7
7-1213 7
7-1214 7
7-1215 7
7-1216 7
7-1217 7
7-1218 7
7-1219 7
7-1220 7
7-1221 7
7-1222 7
7-1223 7
7-1224 7
7-1225 7
7-1226 7
7-1227 7
7-1228 7
7-1229 7
7-1230 7
7-1231 7
7-1232 7
7-1233 7
7-1234 7
7-1235 7
7-1236 7
7-1237 7
7-1238 7
7-1239 7
7-1240 7
7-1241 7
7-1242 7
7-1243 7
7-1244 7
7-1245 7
7-1246 7
7-1247 7
7-1248 7
7-1249 7
7-1250 7
7-1251 7
7-1252 7
7-1253 7
7-1254 7
7-1255 7
7-1256 7
7-1257 7
7-1258 7
7-1259 7
7-1260 7
7-1261 7
7-1262 7
7-991 7
7-995 7
7-996 7
7-997 7
70-7096 70
70-7097 70
70-7098 70
70-7099 70
70-7100 70
70-7101 70
70-7102 70
70-7103 70
70-7104 70
70-7105 70
70-7106 70
70-7107 70
70-7108 70
70-7109 70
70-7110 70
70-7111 70
70-7112 70
70-7113 70
70-7114 70
70-7115 70
70-7116 70
70-7117 70
70-7118 70
70-7119 70
70-7120 70
70-7121 70
70-7122 70
70-7123 70
70-7124 70
70-7125 70
70-7126 70
70-7127 70
70-7128 70
70-7129 70
70-7130 70
70-7131 70
70-7132 70
70-7133 70
70-7134 70
70-7135 70
70-7136 70
70-7137 70
70-7138 70
70-7139 70
70-7140 70
70-7141 70
70-7142 70
70-7143 70
70-7144 70
70-7145 70
70-7146 70
70-7147 70
70-7148 70
70-7149 70
70-7150 70
70-7151 70
70-7152 70
70-7153 70
70-7154 70
70-7155 70
70-7156 70
70-7157 70
70-7158 70
70-7159 70
70-7160 70
70-7161 70
70-7162 70
70-7163 70
70-7164 70
70-7165 70
70-7166 70
70-7167 70
70-7168 70
70-7169 70
70-7170 70
70-7171 70
70-7172 70
70-7173 70
70-7174 70
70-7175 70
70-7176 70
70-7177 70
70-7178 70
70-7179 70
70-7180 70
70-7181 70
70-7182 70
70-7183 70
70-7184 70
70-7185 70
70-7186 70
70-7187 70
70-7188 70
70-7189 70
70-7190 70
71-7191 71
71-7192 71
71-7193 71
71-7194 71
71-7195 71
71-7196 71
71-7197 71
71-7198 71
71-7199 71
71-7200 71
71-7201 71
71-7202 71
71-7203 71
71-7204 71
71-7205 71
71-7206 71
71-7207 71
71-7208 71
71-7209 71
71-7210 71
71-7211 71
71-7212 71
71-7213 71
71-7214 71
71-7215 71
71-7216 71
71-7217 71
71-7218 71
71-7219 71
71-7220 71
71-7221 71
71-7222 71
71-7223 71
71-7224 71
71-7225 71
71-7226 71
71-7227 71
71-7228 71
71-7229 71
71-7230 71
71-7231 71
71-7232 71
71-7233 71
71-7234 71
71-7235 71
71-7236 71
71-7237 71
71-7238 71
71-7239 71
71-7241 71
73-7332 73
73-7333 73
73-7334 73
79-7950 79
79-7951 79
79-7952 79
79-7953 79
79-7954 79
79-7955 79
79-7956 79
79-7957 79
79-7958 79
79-7959 79
79-7960 79
79-7961 79
79-7962 79
79-7963 79
79-7964 79
79-7965 79
79-7966 79
79-7967 79
79-7968 79
79-7969 79
79-7970 79
79-7971 79
79-7972 79
79-7973 79
79-7974 79
79-7975 79
79-7976 79
79-7977 79
79-7978 79
79-7979 79
79-7980 79
79-7981 79
79-7982 79
79-7983 79
79-7984 79
79-7985 79
79-7986 79
79-7987 79
79-7988 79
79-7989 79
79-7990 79
79-7991 79
79-7992 79
79-7993 79
79-7994 79
79-7995 79
79-7996 79
79-7997 79
79-7998 79
79-7999 79
79-8000 79
79-8001 79
79-8002 79
79-8003 79
79-8004 79
79-8005 79
79-8006 79
79-8007 79
79-8008 79
81-8059 81
81-8060 81
81-8061 81
81-8062 81
81-8063 81
81-8064 81
81-8065 81
81-8066 81
81-8067 81
81-8068 81
81-8069 81
81-8070 81
81-8071 81
81-8072 81
81-8073 81
81-8074 81
81-8075 81
81-8076 81
81-8077 81
81-8078 81
81-8079 81
81-8080 81
81-8081 81
81-8082 81
81-8083 81
81-8084 81
81-8085 81
81-8086 81
81-8087 81
81-8088 81
81-8089 81
81-8090 81
81-8091 81
81-8092 81
81-8093 81
81-8094 81
81-8095 81
81-8096 81
81-8097 81
81-8098 81
81-8099 81
81-8100 81
81-8101 81
81-8102 81
81-8103 81
81-8104 81
81-8105 81
81-8106 81
81-8107 81
81-8108 81
81-8109 81
81-8110 81
81-8111 81
81-8112 81
81-8113 81
81-8114 81
81-8115 81
81-8116 81
81-8117 81
81-8118 81
81-8119 81
81-8120 81
81-8121 81
81-8122 81
81-8123 81
81-8124 81
81-8125 81
81-8126 81
81-8127 81
81-8128 81
81-8129 81
81-8130 81
81-8131 81
81-8132 81
81-8133 81
81-8134 81
81-8135 81
81-8136 81
81-8137 81
81-8138 81
81-8139 81
81-8140 81
81-8141 81
81-8142 81
81-8143 81
81-8144 81
81-8145 81
81-8146 81
81-8147 81
81-8148 81
81-8149 81
81-8150 81
81-8151 81
81-8152 81
81-8153 81
81-8154 81
81-8155 81
81-8156 81
81-8157 81
81-8158 81
81-8159 81
81-8160 81
81-8161 81
81-8162 81
81-8163 81
81-8164 81
81-8165 81
81-8166 81
81-8167 81
81-8168 81
81-8169 81
81-8170 81
81-8171 81
81-8172 81
81-8173 81
81-8174 81
81-8175 81
81-8176 81
81-8177 81
81-8178 81
81-8179 81
81-8180 81
81-8181 81
81-8182 81
81-8183 81
81-8184 81
81-8185 81
81-8186 81
81-8187 81
81-8188 81
81-8189 81
81-8190 81
81-8191 81
81-8192 81
81-8193 81
81-8194 81
81-8195 81
81-8196 81
81-8197 81
81-8198 81
81-8199 81
81-8200 81
81-8201 81
81-8202 81
81-8203 81
81-8204 81
81-8205 81
81-8206 81
81-8207 81
81-8208 81
81-8209 81
81-8210 81
81-8211 81
81-8212 81
81-8213 81
81-8214 81
81-8215 81
81-8216 81
81-8217 81
81-8218 81
81-8219 81
81-8220 81
81-8221 81
81-8222 81
81-8223 81
81-8224 81
81-8225 81
81-8226 81
81-8227 81
81-8228 81
81-8229 81
81-8230 81
81-8231 81
81-8232 81
81-8233 81
81-8234 81
81-8235 81
81-8236 81
81-8237 81
81-8238 81
81-8239 81
81-8240 81
81-8241 81
81-8242 81
81-8243 81
81-8244 81
81-8245 81
81-8246 81
81-8247 81
81-8248 81
81-8249 81
81-8250 81
81-8251 81
81-8252 81
81-8253 81
81-8254 81
81-8255 81
81-8256 81
81-8257 81
81-8258 81
81-8259 81
81-8260 81
81-8261 81
81-8262 81
81-8263 81
81-8264 81
81-8265 81
81-8266 81
81-8267 81
81-8268 81
81-8269 81
81-8270 81
81-8271 81
81-8272 81
81-8273 81
81-8274 81
81-8275 81
81-8276 81
81-8277 81
81-8278 81
81-8279 81
81-8280 81
81-8281 81
81-8282 81
81-8283 81
81-8284 81
81-8285 81
81-8286 81
81-8287 81
81-8288 81
81-8289 81
81-8290 81
81-8291 81
81-8292 81
81-8293 81
81-8294 81
81-8295 81
81-8296 81
81-8297 81
81-8298 81
81-8299 81
81-8300 81
81-8301 81
81-8302 81
81-8303 81
81-8304 81
81-8305 81
81-8306 81
81-8307 81
81-8308 81
81-8309 81
81-8310 81
81-8311 81
81-8312 81
81-8313 81
81-8314 81
81-8315 81
88-9377 88
88-9378 88
89-9379 89
89-9380 89
89-9381 89
89-9382 89
89-9383 89
89-9384 89
89-9385 89
89-9386 89
89-9387 89
89-9388 89
89-9389 89
89-9390 89
89-9391 89
89-9392 89
89-9393 89
89-9394 89
89-9395 89
89-9396 89
89-9397 89
89-9398 89
89-9399 89
89-9400 89
89-9401 89
89-9402 89
89-9403 89
89-9404 89
89-9405 89
89-9406 89
89-9407 89
89-9408 89
89-9409 89
89-9410 89
89-9411 89
89-9412 89
89-9413 89
89-9414 89
89-9415 89
89-9416 89
89-9417 89
89-9418 89
89-9419 89
89-9420 89
89-9421 89
89-9422 89
89-9423 89
89-9424 89
89-9425 89
89-9426 89
89-9427 89
